-12 -14 -15 0
-9 -14 -15 0
-5 -14 -15 0
-14 -15 0
d -12 -14 -15 0
9 5 14 0
12 5 14 0
5 -15 0
-12 -15 0
-9 -15 0
d -9 -14 -15 0
-15 0
12 9 0
14 9 0
d 9 5 14 0
9 -5 0
-14 -5 0
d -5 -14 -15 0
-12 -5 0
-5 0
4 0
12 0
-14 -9 0
14 0
-10 0
-9 0
8 0
1 0
0
